
Gurobi 13.0.2 (win64) logging started Thu Jul 23 17:18:20 2026

Set parameter LogFile to value "E:\codes\ExactEBRP\results\gf_gurobi_performance_recovery_round29\runs\stage2__tight_T_seed5102__c3_replica__300s\external\native_logs\R.0.1.1.0.0.0.1.0.1.1_terminal_mip.gurobi.log"
Gurobi Optimizer version 13.0.2 build v13.0.2rc1 (win64 - Windows 10.0 (19045.2))

CPU model: 12th Gen Intel(R) Core(TM) i7-12700KF, instruction set [SSE2|AVX|AVX2]
Thread count: 12 physical cores, 20 logical processors, using up to 1 threads

Non-default parameters:
TimeLimit  8.3110250299999990e+01
MIPGap  0
MIPGapAbs  0
LogToConsole  0
Threads  1

Optimize a model with 11916 rows, 3378 columns and 67376 nonzeros (Min)
Model fingerprint: 0x7cdb96e1
Model has 21 linear objective coefficients
Variable types: 1686 continuous, 1692 integer (1492 binary)
Coefficient statistics:
  Matrix range     [7e-03, 2e+04]
  Objective range  [7e-03, 1e+00]
  Bounds range     [1e-01, 4e+02]
  RHS range        [8e-02, 5e+04]

Presolve removed 1291 rows and 80 columns
Presolve time: 0.18s
Presolved: 10625 rows, 3298 columns, 88339 nonzeros
Variable types: 1640 continuous, 1658 integer (1476 binary)

Root relaxation: objective 2.499282e-01, 2934 iterations, 0.14 seconds (0.39 work units)

    Nodes    |    Current Node    |     Objective Bounds      |     Work
 Expl Unexpl |  Obj  Depth IntInf | Incumbent    BestBd   Gap | It/Node Time

     0     0    0.24993    0  191          -    0.24993      -     -    0s
     0     0    0.32704    0  208          -    0.32704      -     -    1s
     0     0    0.33168    0  236          -    0.33168      -     -    1s
     0     0 infeasible    0               - infeasible      -     -    1s

Cutting planes:
  Learned: 11
  Gomory: 15
  Cover: 21
  Implied bound: 126
  Clique: 22
  MIR: 282
  StrongCG: 7
  Flow cover: 117
  GUB cover: 2
  Zero half: 4
  Network: 15
  RLT: 6
  Relax-and-lift: 57
  BQP: 16

Explored 1 nodes (6254 simplex iterations) in 1.52 seconds (2.76 work units)
Thread count was 1 (of 20 available processors)

Solution count 0

Model is infeasible
Best objective -, best bound -, gap -

User-callback calls 1094, time in user-callback 0.00 sec
